NAME: dantzig42.tsp
TYPE: TSP
COMMENT: Solution
DIMENSION: 42
TOUR_SECTION
1
42
41
4
3
9
23
22
26
27
24
25
8
7
6
5
40
39
38
37
35
34
32
33
36
31
30
28
29
21
20
19
18
17
16
15
14
13
12
11
10
2
-1
EOF